(set-option :produce-models true); benchmark generated from python API
(set-info :status unknown)
(declare-fun l_0_0_8 () Real)
(declare-fun l_0_0_7 () Real)
(declare-fun l_0_0_2 () Real)
(declare-fun l_0_0_1 () Real)
(declare-fun _a_0_ () Real)
(declare-fun l_0_0_10 () Real)
(declare-fun l_0_0_4 () Real)
(declare-fun _a_1_ () Real)
(declare-fun l_0_0_9 () Real)
(declare-fun l_0_0_3 () Real)
(declare-fun _a_2_ () Real)
(declare-fun l_0_0_6 () Real)
(declare-fun l_0_0_5 () Real)
(declare-fun l_0_0_12 () Real)
(declare-fun l_0_0_11 () Real)
(declare-fun _a_3_ () Real)
(declare-fun l_0_1_7 () Real)
(declare-fun l_0_1_13 () Real)
(declare-fun l_0_1_1 () Real)
(declare-fun l_0_1_9 () Real)
(declare-fun l_0_1_8 () Real)
(declare-fun l_0_1_3 () Real)
(declare-fun l_0_1_2 () Real)
(declare-fun l_0_1_15 () Real)
(declare-fun l_0_1_14 () Real)
(declare-fun l_0_1_6 () Real)
(declare-fun l_0_1_5 () Real)
(declare-fun l_0_1_4 () Real)
(declare-fun l_0_1_18 () Real)
(declare-fun l_0_1_17 () Real)
(declare-fun l_0_1_16 () Real)
(declare-fun l_0_1_12 () Real)
(declare-fun l_0_1_11 () Real)
(declare-fun l_0_1_10 () Real)
(declare-fun l_0_2_7 () Real)
(declare-fun l_0_2_16 () Real)
(declare-fun l_0_2_13 () Real)
(declare-fun l_0_2_10 () Real)
(declare-fun l_0_2_4 () Real)
(declare-fun l_0_2_1 () Real)
(declare-fun l_0_2_8 () Real)
(declare-fun l_0_2_14 () Real)
(declare-fun l_0_2_2 () Real)
(declare-fun l_0_2_6 () Real)
(declare-fun l_0_2_5 () Real)
(declare-fun l_0_2_18 () Real)
(declare-fun l_0_2_17 () Real)
(declare-fun l_0_2_12 () Real)
(declare-fun l_0_2_11 () Real)
(declare-fun l_0_2_3 () Real)
(declare-fun l_0_2_15 () Real)
(declare-fun l_0_2_9 () Real)
(assert
 (let ((?x64 (- (+ _a_0_ (* (* 16.0 l_0_0_1) l_0_0_2)) (* (* 2.0 l_0_0_7) l_0_0_8))))
 (= ?x64 0.0)))
(assert
 (let ((?x102 (- (+ _a_1_ (* (* 16.0 l_0_0_1) l_0_0_4)) (* (* 6.0 l_0_0_1) l_0_0_1))))
 (= (- ?x102 (* (* 2.0 l_0_0_10) l_0_0_7)) 0.0)))
(assert
 (let ((?x134 (* l_0_0_9 l_0_0_9)))
 (let ((?x132 (* l_0_0_8 l_0_0_8)))
 (let ((?x129 (* l_0_0_3 l_0_0_3)))
 (let ((?x130 (* 8.0 ?x129)))
 (let ((?x125 (* l_0_0_2 l_0_0_2)))
 (let ((?x127 (* 8.0 ?x125)))
 (let ((?x135 (- (- (+ (+ (+ _a_2_ (* l_0_0_1 l_0_0_1)) ?x127) ?x130) ?x132) ?x134)))
 (= ?x135 0.0)))))))))
(assert
 (let ((?x162 (* l_0_0_6 l_0_0_6)))
 (let ((?x163 (* 8.0 ?x162)))
 (let ((?x159 (* l_0_0_5 l_0_0_5)))
 (let ((?x160 (* 8.0 ?x159)))
 (let ((?x156 (* l_0_0_4 l_0_0_4)))
 (let ((?x157 (* 8.0 ?x156)))
 (let ((?x154 (* l_0_0_12 l_0_0_12)))
 (let ((?x152 (* l_0_0_11 l_0_0_11)))
 (let ((?x150 (* l_0_0_10 l_0_0_10)))
 (let ((?x110 (* l_0_0_1 l_0_0_1)))
 (let ((?x153 (- (- (+ (- _a_3_ (* (* 12.0 l_0_0_1) l_0_0_4)) ?x110) ?x150) ?x152)))
 (= (+ (+ (+ (- ?x153 ?x154) ?x157) ?x160) ?x163) 0.0)))))))))))))
(assert
 (let ((?x188 (- (- (* 8.0 (* l_0_0_1 l_0_0_1)) (* l_0_0_7 l_0_0_7)) 1.0)))
 (= ?x188 0.0)))
(assert
 (let ((?x199 (- (* (* (- 12.0) l_0_0_1) l_0_0_2) (* (* 2.0 l_0_0_10) l_0_0_8))))
 (let ((?x205 (+ (- ?x199 (* (* 2.0 l_0_0_11) l_0_0_9)) (* (* 16.0 l_0_0_2) l_0_0_4))))
 (= (+ ?x205 (* (* 16.0 l_0_0_3) l_0_0_5)) 0.0))))
(assert
 (let ((?x224 (* 2.0 l_0_0_1)))
 (let ((?x226 (* ?x224 l_0_0_2)))
 (= ?x226 0.0))))
(assert
 (let ((?x224 (* 2.0 l_0_0_1)))
 (let ((?x234 (* ?x224 l_0_0_4)))
 (let ((?x241 (- (- ?x234 (* (* 6.0 l_0_0_2) l_0_0_2)) (* (* 6.0 l_0_0_3) l_0_0_3))))
 (= ?x241 0.0)))))
(assert
 (let ((?x129 (* l_0_0_3 l_0_0_3)))
 (let ((?x125 (* l_0_0_2 l_0_0_2)))
 (let ((?x255 (+ ?x125 ?x129)))
 (= ?x255 0.0)))))
(assert
 (let ((?x261 (+ (* (* 2.0 l_0_0_2) l_0_0_4) (* (* 2.0 l_0_0_3) l_0_0_5))))
 (= ?x261 0.0)))
(assert
 (let ((?x162 (* l_0_0_6 l_0_0_6)))
 (let ((?x159 (* l_0_0_5 l_0_0_5)))
 (let ((?x156 (* l_0_0_4 l_0_0_4)))
 (let ((?x129 (* l_0_0_3 l_0_0_3)))
 (let ((?x125 (* l_0_0_2 l_0_0_2)))
 (let ((?x255 (+ ?x125 ?x129)))
 (= (+ (+ (+ ?x255 ?x156) ?x159) ?x162) 0.0))))))))
(assert
 (let ((?x224 (* 2.0 l_0_0_1)))
 (let ((?x226 (* ?x224 l_0_0_2)))
 (let ((?x278 (- (- ?x226 (* (* 12.0 l_0_0_2) l_0_0_4)) (* (* 12.0 l_0_0_3) l_0_0_5))))
 (= ?x278 0.0)))))
(assert
 (let ((?x224 (* 2.0 l_0_0_1)))
 (let ((?x234 (* ?x224 l_0_0_4)))
 (let ((?x297 (- (- ?x234 (* (* 6.0 l_0_0_4) l_0_0_4)) (* (* 6.0 l_0_0_5) l_0_0_5))))
 (= (- ?x297 (* (* 6.0 l_0_0_6) l_0_0_6)) 0.0)))))
(assert
 (let ((?x261 (+ (* (* 2.0 l_0_0_2) l_0_0_4) (* (* 2.0 l_0_0_3) l_0_0_5))))
 (= ?x261 0.0)))
(assert
 (let ((?x162 (* l_0_0_6 l_0_0_6)))
 (= (+ (+ (* l_0_0_4 l_0_0_4) (* l_0_0_5 l_0_0_5)) ?x162) 0.0)))
(assert
 (>= l_0_0_1 0.0))
(assert
 (>= l_0_0_3 0.0))
(assert
 (>= l_0_0_6 0.0))
(assert
 (>= l_0_0_7 0.0))
(assert
 (>= l_0_0_9 0.0))
(assert
 (>= l_0_0_12 0.0))
(assert
 (let ((?x336 (- (- (* 1.0 (* l_0_1_1 l_0_1_1)) (* l_0_1_13 l_0_1_13)) (* (* 5.0 l_0_1_7) l_0_1_7))))
 (= (+ ?x336 1.0) 0.0)))
(assert
 (let ((?x341 (* l_0_1_7 l_0_1_7)))
 (let ((?x357 (* l_0_1_15 l_0_1_15)))
 (let ((?x355 (* l_0_1_14 l_0_1_14)))
 (let ((?x354 (- (* (* (* (- 2.0) _a_0_) l_0_1_1) l_0_1_2) (* (* _a_2_ l_0_1_1) l_0_1_1))))
 (let ((?x364 (+ (+ (- (- ?x354 ?x355) ?x357) (* 1.0 (* l_0_1_2 l_0_1_2))) (* 1.0 (* l_0_1_3 l_0_1_3)))))
 (let ((?x371 (- (- (- ?x364 ?x341) (* (* 5.0 l_0_1_8) l_0_1_8)) (* (* 5.0 l_0_1_9) l_0_1_9))))
 (= (- ?x371 1.0) 0.0))))))))
(assert
 (let ((?x414 (+ (* (* (- _a_0_) l_0_1_1) l_0_1_1) (* (* 2.0 l_0_1_1) l_0_1_2))))
 (let ((?x421 (- (- ?x414 (* (* 2.0 l_0_1_13) l_0_1_14)) (* (* 10.0 l_0_1_7) l_0_1_8))))
 (= (+ ?x421 4.0) 0.0))))
(assert
 (let ((?x341 (* l_0_1_7 l_0_1_7)))
 (let ((?x468 (* l_0_1_18 l_0_1_18)))
 (let ((?x466 (* l_0_1_17 l_0_1_17)))
 (let ((?x464 (* l_0_1_16 l_0_1_16)))
 (let ((?x451 (- (* (* (* (- 2.0) _a_1_) l_0_1_1) l_0_1_4) (* (* _a_3_ l_0_1_1) l_0_1_1))))
 (let ((?x457 (- (+ ?x451 (* (* 12.0 l_0_1_10) l_0_1_7)) (* (* 5.0 l_0_1_10) l_0_1_10))))
 (let ((?x463 (- (- ?x457 (* (* 5.0 l_0_1_11) l_0_1_11)) (* (* 5.0 l_0_1_12) l_0_1_12))))
 (let ((?x472 (+ (- (- (- ?x463 ?x464) ?x466) ?x468) (* 1.0 (* l_0_1_4 l_0_1_4)))))
 (let ((?x478 (+ (+ ?x472 (* 1.0 (* l_0_1_5 l_0_1_5))) (* 1.0 (* l_0_1_6 l_0_1_6)))))
 (= (- (- ?x478 ?x341) 1.0) 0.0)))))))))))
(assert
 (let ((?x341 (* l_0_1_7 l_0_1_7)))
 (let ((?x540 (* 6.0 ?x341)))
 (let ((?x534 (+ (* (* (- _a_1_) l_0_1_1) l_0_1_1) (* (* 2.0 l_0_1_1) l_0_1_4))))
 (let ((?x539 (- (- ?x534 (* (* 10.0 l_0_1_10) l_0_1_7)) (* (* 2.0 l_0_1_13) l_0_1_16))))
 (= (+ (+ ?x539 ?x540) 4.0) 0.0))))))
(assert
 (let ((?x583 (* (* 2.0 l_0_1_3) l_0_1_5)))
 (let ((?x580 (* (* 2.0 l_0_1_2) l_0_1_4)))
 (let ((?x567 (- (* (* (* (- 2.0) _a_0_) l_0_1_1) l_0_1_4) (* (* (* 2.0 _a_1_) l_0_1_1) l_0_1_2))))
 (let ((?x572 (- (- ?x567 (* (* 10.0 l_0_1_10) l_0_1_8)) (* (* 10.0 l_0_1_11) l_0_1_9))))
 (let ((?x578 (- (- ?x572 (* (* 2.0 l_0_1_14) l_0_1_16)) (* (* 2.0 l_0_1_15) l_0_1_17))))
 (= (+ (+ (+ ?x578 ?x580) ?x583) (* (* 12.0 l_0_1_7) l_0_1_8)) 0.0)))))))
(assert
 (let ((?x637 (* (* 2.0 l_0_1_7) l_0_1_8)))
 (let ((?x635 (- (* (- _a_0_) (+ (* l_0_1_2 l_0_1_2) (* l_0_1_3 l_0_1_3))) (* (* (* 2.0 _a_2_) l_0_1_1) l_0_1_2))))
 (= (- ?x635 ?x637) 0.0))))
(assert
 (let ((?x396 (* l_0_1_9 l_0_1_9)))
 (let ((?x669 (* 6.0 ?x396)))
 (let ((?x390 (* l_0_1_8 l_0_1_8)))
 (let ((?x667 (* 6.0 ?x390)))
 (let ((?x664 (* 2.0 l_0_1_10)))
 (let ((?x665 (* ?x664 l_0_1_7)))
 (let ((?x583 (* (* 2.0 l_0_1_3) l_0_1_5)))
 (let ((?x580 (* (* 2.0 l_0_1_2) l_0_1_4)))
 (let ((?x658 (+ ?x580 ?x583)))
 (let ((?x409 (- _a_0_)))
 (let ((?x661 (- (* ?x409 ?x658) (* _a_1_ (+ (* l_0_1_2 l_0_1_2) (* l_0_1_3 l_0_1_3))))))
 (let ((?x668 (+ (- (- ?x661 (* (* (* 2.0 _a_2_) l_0_1_1) l_0_1_4)) ?x665) ?x667)))
 (= (+ ?x668 ?x669) 0.0))))))))))))))
(assert
 (let ((?x637 (* (* 2.0 l_0_1_7) l_0_1_8)))
 (let ((?x583 (* (* 2.0 l_0_1_3) l_0_1_5)))
 (let ((?x580 (* (* 2.0 l_0_1_2) l_0_1_4)))
 (let ((?x658 (+ ?x580 ?x583)))
 (let ((?x476 (* l_0_1_6 l_0_1_6)))
 (let ((?x704 (+ (+ (* l_0_1_4 l_0_1_4) (* l_0_1_5 l_0_1_5)) ?x476)))
 (let ((?x409 (- _a_0_)))
 (let ((?x711 (- (- (* ?x409 ?x704) (* _a_1_ ?x658)) (* (* (* 2.0 _a_3_) l_0_1_1) l_0_1_2))))
 (let ((?x716 (+ (+ ?x711 (* (* 12.0 l_0_1_10) l_0_1_8)) (* (* 12.0 l_0_1_11) l_0_1_9))))
 (= (- ?x716 ?x637) 0.0)))))))))))
(assert
 (let ((?x664 (* 2.0 l_0_1_10)))
 (let ((?x665 (* ?x664 l_0_1_7)))
 (let ((?x476 (* l_0_1_6 l_0_1_6)))
 (let ((?x704 (+ (+ (* l_0_1_4 l_0_1_4) (* l_0_1_5 l_0_1_5)) ?x476)))
 (let ((?x530 (- _a_1_)))
 (let ((?x762 (- (- (* ?x530 ?x704) (* (* (* 2.0 _a_3_) l_0_1_1) l_0_1_4)) ?x665)))
 (let ((?x766 (+ (+ ?x762 (* 6.0 (* l_0_1_10 l_0_1_10))) (* 6.0 (* l_0_1_11 l_0_1_11)))))
 (= (+ ?x766 (* 6.0 (* l_0_1_12 l_0_1_12))) 0.0)))))))))
(assert
 (let ((?x396 (* l_0_1_9 l_0_1_9)))
 (let ((?x390 (* l_0_1_8 l_0_1_8)))
 (let ((?x794 (- (* (- _a_2_) (+ (* l_0_1_2 l_0_1_2) (* l_0_1_3 l_0_1_3))) ?x390)))
 (= (- ?x794 ?x396) 0.0)))))
(assert
 (let ((?x815 (* (* 2.0 l_0_1_11) l_0_1_9)))
 (let ((?x664 (* 2.0 l_0_1_10)))
 (let ((?x812 (* ?x664 l_0_1_8)))
 (let ((?x583 (* (* 2.0 l_0_1_3) l_0_1_5)))
 (let ((?x580 (* (* 2.0 l_0_1_2) l_0_1_4)))
 (let ((?x658 (+ ?x580 ?x583)))
 (let ((?x787 (- _a_2_)))
 (= (- (- (* ?x787 ?x658) ?x812) ?x815) 0.0)))))))))
(assert
 (let ((?x396 (* l_0_1_9 l_0_1_9)))
 (let ((?x390 (* l_0_1_8 l_0_1_8)))
 (let ((?x503 (* l_0_1_12 l_0_1_12)))
 (let ((?x497 (* l_0_1_11 l_0_1_11)))
 (let ((?x491 (* l_0_1_10 l_0_1_10)))
 (let ((?x476 (* l_0_1_6 l_0_1_6)))
 (let ((?x704 (+ (+ (* l_0_1_4 l_0_1_4) (* l_0_1_5 l_0_1_5)) ?x476)))
 (let ((?x787 (- _a_2_)))
 (let ((?x837 (- (* ?x787 ?x704) (* _a_3_ (+ (* l_0_1_2 l_0_1_2) (* l_0_1_3 l_0_1_3))))))
 (= (- (- (- (- (- ?x837 ?x491) ?x497) ?x503) ?x390) ?x396) 0.0)))))))))))
(assert
 (let ((?x815 (* (* 2.0 l_0_1_11) l_0_1_9)))
 (let ((?x664 (* 2.0 l_0_1_10)))
 (let ((?x812 (* ?x664 l_0_1_8)))
 (let ((?x583 (* (* 2.0 l_0_1_3) l_0_1_5)))
 (let ((?x580 (* (* 2.0 l_0_1_2) l_0_1_4)))
 (let ((?x658 (+ ?x580 ?x583)))
 (let ((?x878 (- _a_3_)))
 (= (- (- (* ?x878 ?x658) ?x812) ?x815) 0.0)))))))))
(assert
 (let ((?x503 (* l_0_1_12 l_0_1_12)))
 (let ((?x497 (* l_0_1_11 l_0_1_11)))
 (let ((?x491 (* l_0_1_10 l_0_1_10)))
 (let ((?x476 (* l_0_1_6 l_0_1_6)))
 (let ((?x704 (+ (+ (* l_0_1_4 l_0_1_4) (* l_0_1_5 l_0_1_5)) ?x476)))
 (let ((?x878 (- _a_3_)))
 (= (- (- (- (* ?x878 ?x704) ?x491) ?x497) ?x503) 0.0))))))))
(assert
 (>= l_0_1_1 0.0))
(assert
 (>= l_0_1_3 0.0))
(assert
 (>= l_0_1_6 0.0))
(assert
 (>= l_0_1_7 0.0))
(assert
 (>= l_0_1_9 0.0))
(assert
 (>= l_0_1_12 0.0))
(assert
 (>= l_0_1_13 0.0))
(assert
 (>= l_0_1_15 0.0))
(assert
 (>= l_0_1_18 0.0))
(assert
 (let ((?x930 (* (/ 9.0 10.0) _a_1_)))
 (let ((?x934 (+ (+ (- (* (/ 1.0 10.0) _a_0_) (* (* _a_1_ l_0_2_1) l_0_2_1)) ?x930) (* (* 2.0 l_0_2_1) l_0_2_4))))
 (let ((?x940 (- (+ ?x934 (* (* 10.0 l_0_2_10) l_0_2_7)) (* (* 2.0 l_0_2_13) l_0_2_16))))
 (= (- ?x940 (* (* 6.0 l_0_2_7) l_0_2_7)) 0.0)))))
(assert
 (let ((?x971 (+ (+ (* (* (- _a_0_) l_0_2_1) l_0_2_1) (* (/ 9.0 10.0) _a_0_)) (* (* 2.0 l_0_2_1) l_0_2_2))))
 (let ((?x976 (+ (- ?x971 (* (* 2.0 l_0_2_13) l_0_2_14)) (* (* 10.0 l_0_2_7) l_0_2_8))))
 (= ?x976 0.0))))
(assert
 (let ((?x959 (* l_0_2_7 l_0_2_7)))
 (let ((?x1020 (* l_0_2_18 l_0_2_18)))
 (let ((?x1018 (* l_0_2_17 l_0_2_17)))
 (let ((?x1016 (* l_0_2_16 l_0_2_16)))
 (let ((?x1013 (* l_0_2_12 l_0_2_12)))
 (let ((?x1014 (* 5.0 ?x1013)))
 (let ((?x1010 (* l_0_2_11 l_0_2_11)))
 (let ((?x1011 (* 5.0 ?x1010)))
 (let ((?x1007 (* l_0_2_10 l_0_2_10)))
 (let ((?x1008 (* 5.0 ?x1007)))
 (let ((?x1002 (* (/ 81.0 100.0) _a_3_)))
 (let ((?x1000 (- (+ (* (* (* (- 2.0) _a_1_) l_0_2_1) l_0_2_4) (* (/ 1.0 100.0) _a_2_)) (* (* _a_3_ l_0_2_1) l_0_2_1))))
 (let ((?x1012 (+ (+ (- (+ ?x1000 ?x1002) (* (* 12.0 l_0_2_10) l_0_2_7)) ?x1008) ?x1011)))
 (let ((?x1024 (+ (- (- (- (+ ?x1012 ?x1014) ?x1016) ?x1018) ?x1020) (* 1.0 (* l_0_2_4 l_0_2_4)))))
 (let ((?x1030 (+ (+ ?x1024 (* 1.0 (* l_0_2_5 l_0_2_5))) (* 1.0 (* l_0_2_6 l_0_2_6)))))
 (= (+ ?x1030 ?x959) 0.0)))))))))))))))))
(assert
 (let ((?x1081 (* (* 2.0 l_0_2_3) l_0_2_5)))
 (let ((?x1078 (* (* 2.0 l_0_2_2) l_0_2_4)))
 (let ((?x1064 (* (/ 9.0 50.0) _a_2_)))
 (let ((?x1062 (- (* (* (* (- 2.0) _a_0_) l_0_2_1) l_0_2_4) (* (* (* 2.0 _a_1_) l_0_2_1) l_0_2_2))))
 (let ((?x1070 (+ (+ (+ ?x1062 ?x1064) (* (* 10.0 l_0_2_10) l_0_2_8)) (* (* 10.0 l_0_2_11) l_0_2_9))))
 (let ((?x1076 (- (- ?x1070 (* (* 2.0 l_0_2_14) l_0_2_16)) (* (* 2.0 l_0_2_15) l_0_2_17))))
 (= (- (+ (+ ?x1076 ?x1078) ?x1081) (* (* 12.0 l_0_2_7) l_0_2_8)) 0.0))))))))
(assert
 (let ((?x1143 (* l_0_2_9 l_0_2_9)))
 (let ((?x1144 (* 5.0 ?x1143)))
 (let ((?x1140 (* l_0_2_8 l_0_2_8)))
 (let ((?x1141 (* 5.0 ?x1140)))
 (let ((?x959 (* l_0_2_7 l_0_2_7)))
 (let ((?x1131 (* l_0_2_15 l_0_2_15)))
 (let ((?x1129 (* l_0_2_14 l_0_2_14)))
 (let ((?x1127 (* (/ 81.0 100.0) _a_2_)))
 (let ((?x1126 (- (* (* (* (- 2.0) _a_0_) l_0_2_1) l_0_2_2) (* (* _a_2_ l_0_2_1) l_0_2_1))))
 (let ((?x1135 (+ (- (- (+ ?x1126 ?x1127) ?x1129) ?x1131) (* 1.0 (* l_0_2_2 l_0_2_2)))))
 (let ((?x1145 (+ (+ (+ (+ ?x1135 (* 1.0 (* l_0_2_3 l_0_2_3))) ?x959) ?x1141) ?x1144)))
 (= ?x1145 0.0)))))))))))))
(assert
 (let ((?x959 (* l_0_2_7 l_0_2_7)))
 (let ((?x1167 (* 5.0 ?x959)))
 (let ((?x1168 (+ (- (* 1.0 (* l_0_2_1 l_0_2_1)) (* l_0_2_13 l_0_2_13)) ?x1167)))
 (= (- ?x1168 1.0) 0.0)))))
(assert
 (let ((?x1183 (* (* 2.0 l_0_2_7) l_0_2_8)))
 (let ((?x1181 (- (* (- _a_0_) (+ (* l_0_2_2 l_0_2_2) (* l_0_2_3 l_0_2_3))) (* (* (* 2.0 _a_2_) l_0_2_1) l_0_2_2))))
 (= (+ ?x1181 ?x1183) 0.0))))
(assert
 (let ((?x1206 (* 2.0 l_0_2_10)))
 (let ((?x1207 (* ?x1206 l_0_2_7)))
 (let ((?x1081 (* (* 2.0 l_0_2_3) l_0_2_5)))
 (let ((?x1078 (* (* 2.0 l_0_2_2) l_0_2_4)))
 (let ((?x1200 (+ ?x1078 ?x1081)))
 (let ((?x409 (- _a_0_)))
 (let ((?x1203 (- (* ?x409 ?x1200) (* _a_1_ (+ (* l_0_2_2 l_0_2_2) (* l_0_2_3 l_0_2_3))))))
 (let ((?x1211 (- (+ (- ?x1203 (* (* (* 2.0 _a_2_) l_0_2_1) l_0_2_4)) ?x1207) (* (* 6.0 l_0_2_8) l_0_2_8))))
 (= (- ?x1211 (* (* 6.0 l_0_2_9) l_0_2_9)) 0.0))))))))))
(assert
 (let ((?x1183 (* (* 2.0 l_0_2_7) l_0_2_8)))
 (let ((?x1081 (* (* 2.0 l_0_2_3) l_0_2_5)))
 (let ((?x1078 (* (* 2.0 l_0_2_2) l_0_2_4)))
 (let ((?x1200 (+ ?x1078 ?x1081)))
 (let ((?x1028 (* l_0_2_6 l_0_2_6)))
 (let ((?x1254 (+ (+ (* l_0_2_4 l_0_2_4) (* l_0_2_5 l_0_2_5)) ?x1028)))
 (let ((?x409 (- _a_0_)))
 (let ((?x1260 (- (- (* ?x409 ?x1254) (* _a_1_ ?x1200)) (* (* (* 2.0 _a_3_) l_0_2_1) l_0_2_2))))
 (let ((?x1265 (- (- ?x1260 (* (* 12.0 l_0_2_10) l_0_2_8)) (* (* 12.0 l_0_2_11) l_0_2_9))))
 (= (+ ?x1265 ?x1183) 0.0)))))))))))
(assert
 (let ((?x1206 (* 2.0 l_0_2_10)))
 (let ((?x1207 (* ?x1206 l_0_2_7)))
 (let ((?x1028 (* l_0_2_6 l_0_2_6)))
 (let ((?x1254 (+ (+ (* l_0_2_4 l_0_2_4) (* l_0_2_5 l_0_2_5)) ?x1028)))
 (let ((?x530 (- _a_1_)))
 (let ((?x1314 (+ (- (* ?x530 ?x1254) (* (* (* 2.0 _a_3_) l_0_2_1) l_0_2_4)) ?x1207)))
 (let ((?x1320 (- (- ?x1314 (* (* 6.0 l_0_2_10) l_0_2_10)) (* (* 6.0 l_0_2_11) l_0_2_11))))
 (= (- ?x1320 (* (* 6.0 l_0_2_12) l_0_2_12)) 0.0)))))))))
(assert
 (let ((?x1143 (* l_0_2_9 l_0_2_9)))
 (let ((?x1140 (* l_0_2_8 l_0_2_8)))
 (let ((?x1358 (+ (* (- _a_2_) (+ (* l_0_2_2 l_0_2_2) (* l_0_2_3 l_0_2_3))) ?x1140)))
 (= (+ ?x1358 ?x1143) 0.0)))))
(assert
 (let ((?x1372 (* (* 2.0 l_0_2_11) l_0_2_9)))
 (let ((?x1206 (* 2.0 l_0_2_10)))
 (let ((?x1369 (* ?x1206 l_0_2_8)))
 (let ((?x1081 (* (* 2.0 l_0_2_3) l_0_2_5)))
 (let ((?x1078 (* (* 2.0 l_0_2_2) l_0_2_4)))
 (let ((?x1200 (+ ?x1078 ?x1081)))
 (let ((?x787 (- _a_2_)))
 (= (+ (+ (* ?x787 ?x1200) ?x1369) ?x1372) 0.0)))))))))
(assert
 (let ((?x1143 (* l_0_2_9 l_0_2_9)))
 (let ((?x1140 (* l_0_2_8 l_0_2_8)))
 (let ((?x1013 (* l_0_2_12 l_0_2_12)))
 (let ((?x1010 (* l_0_2_11 l_0_2_11)))
 (let ((?x1007 (* l_0_2_10 l_0_2_10)))
 (let ((?x1028 (* l_0_2_6 l_0_2_6)))
 (let ((?x1254 (+ (+ (* l_0_2_4 l_0_2_4) (* l_0_2_5 l_0_2_5)) ?x1028)))
 (let ((?x787 (- _a_2_)))
 (let ((?x1386 (- (* ?x787 ?x1254) (* _a_3_ (+ (* l_0_2_2 l_0_2_2) (* l_0_2_3 l_0_2_3))))))
 (= (+ (+ (+ (+ (+ ?x1386 ?x1007) ?x1010) ?x1013) ?x1140) ?x1143) 0.0)))))))))))
(assert
 (let ((?x1372 (* (* 2.0 l_0_2_11) l_0_2_9)))
 (let ((?x1206 (* 2.0 l_0_2_10)))
 (let ((?x1369 (* ?x1206 l_0_2_8)))
 (let ((?x1081 (* (* 2.0 l_0_2_3) l_0_2_5)))
 (let ((?x1078 (* (* 2.0 l_0_2_2) l_0_2_4)))
 (let ((?x1200 (+ ?x1078 ?x1081)))
 (let ((?x878 (- _a_3_)))
 (= (+ (+ (* ?x878 ?x1200) ?x1369) ?x1372) 0.0)))))))))
(assert
 (let ((?x1013 (* l_0_2_12 l_0_2_12)))
 (let ((?x1010 (* l_0_2_11 l_0_2_11)))
 (let ((?x1007 (* l_0_2_10 l_0_2_10)))
 (let ((?x1028 (* l_0_2_6 l_0_2_6)))
 (let ((?x1254 (+ (+ (* l_0_2_4 l_0_2_4) (* l_0_2_5 l_0_2_5)) ?x1028)))
 (let ((?x878 (- _a_3_)))
 (= (+ (+ (+ (* ?x878 ?x1254) ?x1007) ?x1010) ?x1013) 0.0))))))))
(assert
 (>= l_0_2_1 0.0))
(assert
 (>= l_0_2_3 0.0))
(assert
 (>= l_0_2_6 0.0))
(assert
 (>= l_0_2_7 0.0))
(assert
 (>= l_0_2_9 0.0))
(assert
 (>= l_0_2_12 0.0))
(assert
 (>= l_0_2_13 0.0))
(assert
 (>= l_0_2_15 0.0))
(assert
 (>= l_0_2_18 0.0))
(check-sat)
(get-model)